# Solution for model r10_t9_m6_7
# Finished Task: 9 / 9
# Makespan: 445.0, Total Distance: 649.0, Total Time: 0.0523
# R O S F
0 0 11 0.0 0.0
1 1 16 0.0 0.0
2 2 12 0.0 0.0
3 3 10 0.0 0.0
4 4 14 0.0 0.0
5 5 15 0.0 0.0
6 6 17 0.0 0.0
7 7 -1 0.0 0.0
8 8 -1 0.0 0.0
9 9 -1 0.0 0.0
10 3 -1 364.0 390.0
11 0 -1 292.0 322.0
12 2 -1 360.0 385.0
13 4 -1 390.0 426.0
14 4 13 322.0 351.0
15 5 -1 385.0 424.0
16 1 18 339.0 364.0
17 6 -1 390.0 423.0
18 1 -1 424.0 445.0
